Academic license - for non-commercial use only
Changed value of parameter TimeLimit to 600.0
   Prev: 1e+100  Min: 0.0  Max: 1e+100  Default: 1e+100
Optimize a model with 1200 rows, 360600 columns and 720600 nonzeros
Variable types: 0 continuous, 360600 integer (360600 binary)
Coefficient statistics:
  Matrix range     [1e+00, 2e+04]
  Objective range  [1e+00, 1e+00]
  Bounds range     [1e+00, 1e+00]
  RHS range        [1e+00, 1e+00]
Found heuristic solution: objective 405.0000000
Presolve time: 1.00s
Presolved: 1200 rows, 360600 columns, 720600 nonzeros
Variable types: 0 continuous, 360600 integer (360600 binary)

Root relaxation: objective 1.980000e+02, 2875 iterations, 0.77 seconds
Total elapsed time = 5.55s
Total elapsed time = 12.34s

    Nodes    |    Current Node    |     Objective Bounds      |     Work
 Expl Unexpl |  Obj  Depth IntInf | Incumbent    BestBd   Gap | It/Node Time

     0     0  198.00000    0  278  405.00000  198.00000  51.1%     -   17s
H    0     0                     233.0000000  198.00000  15.0%     -   18s
H    0     0                     218.0000000  198.00000  9.17%     -   18s
H    0     0                     207.0000000  198.00000  4.35%     -   30s
H    0     0                     206.0000000  198.00000  3.88%     -   32s
     0     0  198.00000    0  421  206.00000  198.00000  3.88%     -   35s
H    0     0                     204.0000000  198.00000  2.94%     -   46s
     0     0  198.00000    0  448  204.00000  198.00000  2.94%     -   47s
     0     0  198.00000    0  310  204.00000  198.00000  2.94%     -  114s
     0     0  198.00000    0  310  204.00000  198.00000  2.94%     -  118s
H    0     0                     203.0000000  198.00000  2.46%     -  137s
     0     2  198.00000    0  301  203.00000  198.00000  2.46%     -  184s
     1     4  198.00000    1  301  203.00000  198.00000  2.46%  5039  185s
     7    14  198.00000    3  409  203.00000  198.00000  2.46%  1082  198s
    13    20  198.00000    4  398  203.00000  198.00000  2.46%   993  213s
    37    44  198.00000    7  404  203.00000  198.00000  2.46%   602  215s
    63    67  198.00000    9  404  203.00000  198.00000  2.46%   643  221s
   110   110  198.00000   13  403  203.00000  198.00000  2.46%   873  231s
   209   211  198.00000   24  402  203.00000  198.00000  2.46%  1101  245s
   347   351  198.00000   33  398  203.00000  198.00000  2.46%  1203  293s
   353   350  198.00000   34  391  203.00000  198.00000  2.46%  1219  310s
   501   505  198.00000   47  373  203.00000  198.00000  2.46%  1267  325s
   658   658  198.00000   63  371  203.00000  198.00000  2.46%  1279  341s
   823   822  198.00000   76  368  203.00000  198.00000  2.46%  1255  357s
   993   992  198.00000   93  365  203.00000  198.00000  2.46%  1218  373s
  1167  1172  198.00000  117  386  203.00000  198.00000  2.46%  1199  390s
  1346  1346  198.00000  138  388  203.00000  198.00000  2.46%  1191  407s
  1537  1541  198.00000  158  370  203.00000  198.00000  2.46%  1176  424s
  1745  1742  198.00000  181  375  203.00000  198.00000  2.46%  1142  443s
  1958  1962  198.00000  204  357  203.00000  198.00000  2.46%  1109  501s
  2066  2064  198.00000  218  353  203.00000  198.00000  2.46%  1096  526s
  2333  2333  198.00000  246  335  203.00000  198.00000  2.46%  1045  550s
  2603  2603  198.00000  274  346  203.00000  198.00000  2.46%  1016  573s
  2893  2894  198.00000  301  349  203.00000  198.00000  2.46%   973  594s
  3198  3197  198.00000  329  331  203.00000  198.00000  2.46%   932  600s

Cutting planes:
  Cover: 322
  Clique: 69
  MIR: 75
  StrongCG: 79

Explored 3269 nodes (3097406 simplex iterations) in 600.10 seconds
Thread count was 12 (of 12 available processors)

Solution count 7: 203 204 206 ... 405

Time limit reached
Best objective 2.030000000000e+02, best bound 1.980000000000e+02, gap 2.4631%
y[0]
y[1]
y[4]
y[14]
y[15]
y[21]
y[23]
y[25]
y[27]
y[29]
y[37]
y[40]
y[45]
y[46]
y[51]
y[57]
y[58]
y[60]
y[62]
y[66]
y[67]
y[71]
y[74]
y[76]
y[77]
y[79]
y[88]
y[90]
y[93]
y[102]
y[106]
y[111]
y[116]
y[120]
y[123]
y[128]
y[130]
y[134]
y[138]
y[139]
y[143]
y[147]
y[150]
y[151]
y[154]
y[158]
y[163]
y[167]
y[169]
y[171]
y[172]
y[175]
y[181]
y[183]
y[184]
y[192]
y[196]
y[204]
y[208]
y[209]
y[210]
y[211]
y[215]
y[216]
y[217]
y[218]
y[219]
y[220]
y[236]
y[237]
y[239]
y[243]
y[246]
y[247]
y[251]
y[252]
y[253]
y[255]
y[257]
y[268]
y[269]
y[273]
y[274]
y[278]
y[280]
y[281]
y[285]
y[292]
y[295]
y[299]
y[301]
y[312]
y[313]
y[314]
y[316]
y[319]
y[321]
y[327]
y[328]
y[334]
y[336]
y[339]
y[341]
y[344]
y[350]
y[352]
y[355]
y[356]
y[361]
y[367]
y[371]
y[373]
y[374]
y[376]
y[377]
y[378]
y[382]
y[383]
y[384]
y[385]
y[393]
y[398]
y[401]
y[404]
y[407]
y[411]
y[412]
y[414]
y[415]
y[416]
y[419]
y[422]
y[424]
y[428]
y[434]
y[441]
y[442]
y[444]
y[445]
y[446]
y[453]
y[454]
y[455]
y[456]
y[458]
y[460]
y[462]
y[463]
y[464]
y[467]
y[468]
y[469]
y[470]
y[473]
y[475]
y[477]
y[478]
y[480]
y[481]
y[483]
y[490]
y[491]
y[497]
y[498]
y[502]
y[509]
y[511]
y[513]
y[514]
y[516]
y[519]
y[525]
y[526]
y[528]
y[529]
y[530]
y[534]
y[539]
y[540]
y[541]
y[547]
y[552]
y[554]
y[557]
y[558]
y[565]
y[566]
y[568]
y[570]
y[574]
y[575]
y[577]
y[580]
y[582]
y[583]
y[584]
y[588]
y[589]
y[593]
y[596]
y[597]
y[598]
y[599]
x[0][4]
x[0][501]
x[0][508]
x[0][515]
x[1][21]
x[1][360]
x[4][149]
x[4][225]
x[14][68]
x[14][420]
x[14][456]
x[14][511]
x[14][554]
x[15][58]
x[15][470]
x[15][472]
x[15][473]
x[15][581]
x[21][190]
x[21][244]
x[21][283]
x[21][514]
x[23][45]
x[23][329]
x[25][155]
x[25][233]
x[25][493]
x[27][121]
x[27][271]
x[27][505]
x[29][175]
x[29][319]
x[29][349]
x[29][405]
x[29][421]
x[37][62]
x[40][32]
x[45][80]
x[45][385]
x[45][500]
x[45][555]
x[45][557]
x[45][584]
x[46][133]
x[46][247]
x[51][86]
x[57][63]
x[57][308]
x[58][163]
x[58][226]
x[58][471]
x[60][26]
x[60][399]
x[60][489]
x[62][140]
x[62][257]
x[62][455]
x[66][147]
x[66][335]
x[66][409]
x[66][464]
x[66][487]
x[66][538]
x[67][200]
x[67][218]
x[67][263]
x[71][61]
x[71][312]
x[74][112]
x[74][262]
x[76][79]
x[76][311]
x[76][556]
x[77][88]
x[77][295]
x[77][595]
x[77][597]
x[79][174]
x[79][248]
x[79][363]
x[88][164]
x[88][220]
x[88][550]
x[90][118]
x[90][273]
x[93][11]
x[93][404]
x[93][587]
x[102][89]
x[102][344]
x[102][484]
x[102][504]
x[106][97]
x[106][300]
x[106][579]
x[111][143]
x[111][235]
x[116][142]
x[116][240]
x[120][114]
x[120][352]
x[120][369]
x[123][77]
x[123][337]
x[123][453]
x[128][160]
x[128][331]
x[128][382]
x[128][415]
x[128][476]
x[130][146]
x[130][265]
x[130][448]
x[130][532]
x[134][111]
x[134][269]
x[138][29]
x[138][347]
x[139][42]
x[139][330]
x[143][119]
x[143][346]
x[143][366]
x[147][75]
x[147][419]
x[150][43]
x[151][179]
x[151][205]
x[154][37]
x[158][211]
x[158][227]
x[158][230]
x[163][55]
x[163][342]
x[163][539]
x[167][172]
x[167][221]
x[167][479]
x[169][188]
x[169][215]
x[169][516]
x[169][534]
x[171][186]
x[171][256]
x[171][298]
x[171][495]
x[172][17]
x[172][457]
x[172][486]
x[175][195]
x[175][198]
x[175][488]
x[175][521]
x[181][101]
x[181][277]
x[183][136]
x[183][268]
x[183][482]
x[184][104]
x[184][285]
x[184][518]
x[192][192]
x[192][197]
x[192][437]
x[196][206]
x[196][209]
x[196][345]
x[196][367]
x[204][171]
x[204][222]
x[204][430]
x[208][69]
x[208][317]
x[209][67]
x[209][386]
x[209][442]
x[210][36]
x[210][426]
x[210][494]
x[210][513]
x[211][126]
x[211][309]
x[211][461]
x[211][481]
x[211][580]
x[215][5]
x[215][418]
x[216][189]
x[216][208]
x[216][371]
x[217][91]
x[217][322]
x[217][499]
x[218][201]
x[218][202]
x[218][314]
x[219][184]
x[219][246]
x[219][441]
x[219][460]
x[219][490]
x[219][536]
x[220][150]
x[220][232]
x[236][83]
x[236][340]
x[236][478]
x[237][65]
x[237][351]
x[237][541]
x[237][570]
x[239][130]
x[239][250]
x[243][115]
x[243][260]
x[246][51]
x[246][325]
x[247][148]
x[247][228]
x[251][135]
x[251][287]
x[251][401]
x[252][9]
x[252][434]
x[252][527]
x[252][544]
x[253][59]
x[255][139]
x[255][234]
x[257][16]
x[257][410]
x[257][530]
x[257][590]
x[268][31]
x[268][343]
x[269][57]
x[269][318]
x[273][122]
x[273][373]
x[273][416]
x[273][439]
x[273][524]
x[274][50]
x[278][203]
x[278][254]
x[278][275]
x[278][357]
x[280][10]
x[280][452]
x[281][176]
x[281][293]
x[281][320]
x[281][531]
x[285][28]
x[285][393]
x[292][23]
x[292][365]
x[295][216]
x[295][217]
x[295][289]
x[295][380]
x[299][117]
x[299][272]
x[299][571]
x[301][84]
x[301][304]
x[301][582]
x[312][24]
x[312][467]
x[312][509]
x[312][522]
x[312][577]
x[313][158]
x[313][267]
x[313][387]
x[313][512]
x[314][54]
x[316][8]
x[316][427]
x[316][463]
x[319][162]
x[319][231]
x[319][574]
x[321][81]
x[321][301]
x[327][134]
x[327][324]
x[327][375]
x[327][533]
x[328][87]
x[328][414]
x[328][440]
x[328][496]
x[334][56]
x[334][390]
x[334][436]
x[336][131]
x[336][315]
x[336][450]
x[336][569]
x[336][575]
x[339][169]
x[339][219]
x[341][82]
x[341][374]
x[341][445]
x[341][510]
x[344][53]
x[344][348]
x[350][193]
x[350][213]
x[350][379]
x[350][552]
x[350][561]
x[352][96]
x[352][368]
x[352][395]
x[355][71]
x[355][299]
x[356][167]
x[356][224]
x[356][431]
x[361][144]
x[361][243]
x[361][560]
x[367][73]
x[367][483]
x[371][70]
x[371][376]
x[371][474]
x[371][565]
x[373][72]
x[373][313]
x[374][125]
x[374][270]
x[374][477]
x[376][178]
x[376][274]
x[376][282]
x[376][549]
x[377][94]
x[377][281]
x[378][44]
x[378][336]
x[382][7]
x[382][423]
x[382][480]
x[383][85]
x[383][305]
x[384][52]
x[385][39]
x[385][332]
x[385][599]
x[393][48]
x[398][138]
x[398][258]
x[398][462]
x[401][20]
x[401][403]
x[401][498]
x[404][30]
x[404][341]
x[407][132]
x[407][249]
x[411][46]
x[411][333]
x[412][107]
x[412][279]
x[414][137]
x[414][242]
x[415][113]
x[415][372]
x[415][378]
x[415][528]
x[416][108]
x[416][356]
x[416][402]
x[419][129]
x[419][264]
x[419][507]
x[419][598]
x[422][168]
x[422][210]
x[424][153]
x[424][280]
x[424][391]
x[428][74]
x[434][183]
x[434][207]
x[441][15]
x[441][413]
x[441][553]
x[442][41]
x[442][394]
x[442][491]
x[444][128]
x[444][259]
x[444][585]
x[445][6]
x[445][424]
x[445][485]
x[446][13]
x[446][458]
x[446][548]
x[453][152]
x[453][362]
x[453][383]
x[453][466]
x[453][525]
x[453][567]
x[454][102]
x[454][353]
x[454][396]
x[455][124]
x[455][397]
x[455][408]
x[455][435]
x[455][578]
x[455][588]
x[456][177]
x[456][204]
x[458][109]
x[458][323]
x[458][449]
x[458][564]
x[460][40]
x[460][338]
x[462][182]
x[462][212]
x[462][469]
x[462][551]
x[463][159]
x[463][306]
x[463][417]
x[463][492]
x[463][502]
x[463][535]
x[463][540]
x[464][93]
x[464][412]
x[464][438]
x[464][454]
x[464][563]
x[467][14]
x[467][446]
x[467][558]
x[467][568]
x[468][78]
x[468][294]
x[469][90]
x[470][123]
x[470][251]
x[473][145]
x[473][236]
x[475][76]
x[475][370]
x[475][429]
x[477][165]
x[477][214]
x[478][161]
x[478][252]
x[478][389]
x[480][106]
x[480][278]
x[480][573]
x[481][49]
x[483][180]
x[483][276]
x[483][296]
x[483][537]
x[490][2]
x[490][407]
x[490][526]
x[491][103]
x[491][321]
x[491][506]
x[491][546]
x[497][105]
x[497][334]
x[497][398]
x[497][596]
x[498][173]
x[498][255]
x[498][411]
x[498][497]
x[498][543]
x[498][592]
x[502][100]
x[502][327]
x[502][422]
x[509][92]
x[509][291]
x[511][38]
x[513][34]
x[513][350]
x[514][22]
x[514][425]
x[514][517]
x[516][66]
x[516][406]
x[516][468]
x[516][503]
x[519][19]
x[519][354]
x[525][110]
x[525][307]
x[525][451]
x[526][47]
x[526][339]
x[528][12]
x[528][545]
x[528][559]
x[529][0]
x[529][428]
x[529][572]
x[529][583]
x[530][116]
x[530][266]
x[534][25]
x[534][377]
x[534][542]
x[539][157]
x[539][237]
x[539][529]
x[540][187]
x[540][253]
x[540][328]
x[540][519]
x[541][194]
x[541][239]
x[541][381]
x[541][520]
x[541][576]
x[541][591]
x[547][191]
x[547][196]
x[552][33]
x[552][364]
x[554][120]
x[554][261]
x[554][547]
x[557][151]
x[557][229]
x[558][18]
x[558][355]
x[565][98]
x[565][359]
x[565][400]
x[566][141]
x[566][297]
x[566][388]
x[568][95]
x[568][310]
x[568][566]
x[570][223]
x[570][238]
x[570][316]
x[570][326]
x[570][358]
x[574][35]
x[575][1]
x[575][384]
x[577][154]
x[577][245]
x[580][166]
x[580][286]
x[580][292]
x[582][170]
x[582][241]
x[582][432]
x[582][459]
x[583][27]
x[583][465]
x[583][475]
x[583][523]
x[583][594]
x[584][156]
x[584][302]
x[584][361]
x[584][433]
x[588][181]
x[588][199]
x[588][593]
x[589][127]
x[589][303]
x[589][447]
x[589][562]
x[589][586]
x[593][185]
x[593][288]
x[593][290]
x[593][444]
x[593][589]
x[596][3]
x[597][99]
x[597][284]
x[598][60]
x[598][392]
x[598][443]
x[599][64]
Obj: 203.0
